Test: battleship-07-12-unsat.cnf
Options: -no-inverting-opt -activity-look-freq=1
WARNING: for repeatability, setting FPU to use double precision
============================[ Problem Statistics ]=============================
|                                                                             |
|  Number of symmetries:           10                                         |
|  Number of invertingSyms:         0                                         |
|  Number of variables:            84                                         |
|  Number of clauses:             301                                         |
|  Parse time:                   0.00 s                                       |
|                                                                             |
============================[ Search Statistics ]==============================
| Conflicts |          ORIGINAL         |          LEARNT          | Progress |
|           |    Vars  Clauses Literals |    Limit  Clauses Lit/Cl |          |
===============================================================================
|       100 |      84      301     1092 |      110      108     34 |  0.014 % |
|       250 |      84      301     1092 |      121      126     29 |  0.014 % |
|       475 |      84      301     1092 |      133      163     30 |  0.014 % |
|       812 |      84      301     1092 |      146       83     25 |  0.099 % |
|      1318 |      84      301     1092 |      161      139     24 |  0.014 % |
|      2077 |      84      301     1092 |      177      160     25 |  0.014 % |
|      3216 |      84      301     1092 |      195      142     25 |  0.014 % |
|      4924 |      84      301     1092 |      215      226     26 |  0.014 % |
|      7486 |      84      301     1092 |      236      145     23 |  0.014 % |
|     11330 |      84      301     1092 |      260      194     25 |  0.014 % |
|     17096 |      84      301     1092 |      286      265     27 |  0.014 % |
|     25745 |      84      301     1092 |      314      193     24 |  0.014 % |
|     38719 |      84      301     1092 |      346      302     25 |  0.014 % |
|     58180 |      84      301     1092 |      381      375     27 |  0.014 % |
|     87372 |      84      301     1092 |      419      299     26 |  0.014 % |
|    131161 |      84      301     1092 |      461      392     27 |  0.014 % |
|    196845 |      84      301     1092 |      507      507     27 |  0.014 % |
===============================================================================
restarts              : 534
conflicts             : 235543         (66911 /sec)
symconflicts          : 12973          (3685 /sec)
decisions             : 335951         (0.00 % random) (95435 /sec)
propagations          : 10183056       (2892733 /sec)
sympropagations       : 61873          (17576 /sec)
conflict literals     : 7741038        (2.95 % deleted)
literals     : 7741038        (2.95 % deleted)

HEURISTIC USAGES
random                : 0           
activity w/ lookahead : 335951      
activity no lookahead : 0           
original sp           : 0           
sym count             : 0           

Memory used           : 5.00 MB
CPU time              : 3.52022 s

UNSATISFIABLE
